src/problems/cvrp/data/train_data/train_case_18.vrp
NAME : case_17
TYPE : CVRP
DIMENSION : 10
EDGE_WEIGHT_TYPE : EUC_2D
CAPACITY : 100
NODE_COORD_SECTION
1 45 65
2 27 43
3 15 19
4 41 37
5 37 31
6 12 24
7 11 14
8 55 20
9 23 3
10 31 52
DEMAND_SECTION
1 0
2 3
3 40
4 2
5 9
6 30
7 8
8 13
9 16
10 18
DEPOT_SECTION
1
-1
EOF
VEHICLE : 5
