src/problems/mkp/data/train_data/train_case_18.mkp
 6 10
 73 465 1455 2749 614 1842
 6 15 13 67 22 28
 7 8 13 71 23 51
 2 4 4 15 5 3
 3 8 5 32 4 11
 3 10 6 45 4 17
 4 13 5 44 4 22
 0 0 0 0 7 0
 2 0 3 0 8 0
 2 1 4 0 6 3
 3 1 4 9 9 4
 84 124 18 36 45 46 9 16 15 25