src/problems/tsp/data/train_data/train_case_18.tsp
NAME : case_8
TYPE : TSP
DIMENSION : 5
EDGE_WEIGHT_TYPE : EUC_2D
NODE_COORD_SECTION
 1 254.92 193.15
 2 475.92 150.65
 3 470.42 356.65
 4 404.42 186.15
 5 560.92 250.15
EOF
